; PUSH cw_1 DUP3 ADD SWAP2 POP POP => ISZERO POP PUSH cw_1 ADD
(set-option :produce-proofs true)
; 
(set-info :status unknown)
(declare-fun storage_t ((_ BitVec 256) (_ BitVec 256) (_ BitVec 256) Int (_ BitVec 256)) (_ BitVec 256))
(declare-fun w_1 () (_ BitVec 256))
(declare-fun storage_s ((_ BitVec 256) (_ BitVec 256) (_ BitVec 256) Int (_ BitVec 256)) (_ BitVec 256))
(declare-fun exc_halt_t (Int) Bool)
(declare-fun exc_halt_s (Int) Bool)
(declare-fun stack_t ((_ BitVec 256) (_ BitVec 256) (_ BitVec 256) Int (_ BitVec 6)) (_ BitVec 256))
(declare-fun stack_s ((_ BitVec 256) (_ BitVec 256) (_ BitVec 256) Int (_ BitVec 6)) (_ BitVec 256))
(declare-fun sc_t (Int) (_ BitVec 6))
(declare-fun sc_s (Int) (_ BitVec 6))
(declare-fun used_gas_t ((_ BitVec 256) (_ BitVec 256) (_ BitVec 256) Int) Int)
(declare-fun used_gas_s ((_ BitVec 256) (_ BitVec 256) (_ BitVec 256) Int) Int)
(assert
 (exists ((x_0 (_ BitVec 256)) (x_1 (_ BitVec 256)) )(let (($x9611 (forall ((w (_ BitVec 256)) )(let ((?x10156 (storage_t x_0 x_1 w_1 4 w)))
 (let ((?x1339 (storage_s x_0 x_1 w_1 6 w)))
 (= ?x1339 ?x10156))))
 ))
 (let (($x7854 (exc_halt_t 4)))
 (let (($x772 (exc_halt_s 6)))
 (let (($x4404 (= $x772 $x7854)))
 (let (($x5065 (forall ((n (_ BitVec 6)) )(let ((?x6070 (stack_t x_0 x_1 w_1 4 n)))
 (let ((?x10564 (stack_s x_0 x_1 w_1 6 n)))
 (let (($x4225 (= ?x10564 ?x6070)))
 (let ((?x4818 (sc_t 4)))
 (let (($x1923 (bvsle ?x4818 n)))
 (or $x1923 $x4225)))))))
 ))
 (let ((?x4818 (sc_t 4)))
 (let ((?x926 (sc_s 6)))
 (let (($x7899 (= ?x926 ?x4818)))
 (let ((?x7553 (used_gas_t x_0 x_1 w_1 0)))
 (let ((?x6307 (used_gas_s x_0 x_1 w_1 0)))
 (let (($x1621 (= ?x6307 ?x7553)))
 (let (($x10850 (forall ((w (_ BitVec 256)) )(let ((?x4236 (storage_t x_0 x_1 w_1 0 w)))
 (let ((?x5603 (storage_s x_0 x_1 w_1 0 w)))
 (= ?x5603 ?x4236))))
 ))
 (let (($x56 (exc_halt_t 0)))
 (let (($x57 (exc_halt_s 0)))
 (let (($x58 (= $x57 $x56)))
 (let (($x9842 (forall ((n (_ BitVec 6)) )(let ((?x63 (sc_t 0)))
 (let (($x2855 (bvsle ?x63 n)))
 (let ((?x5521 (stack_t x_0 x_1 w_1 0 n)))
 (let ((?x8299 (stack_s x_0 x_1 w_1 0 n)))
 (let (($x388 (= ?x8299 ?x5521)))
 (or $x388 $x2855)))))))
 ))
 (let ((?x63 (sc_t 0)))
 (let ((?x72 (sc_s 0)))
 (let (($x73 (= ?x72 ?x63)))
 (let (($x11609 (= $x7854 (or (exc_halt_t 3) (not (bvsle (_ bv0 6) (bvadd (_ bv62 6) (sc_t 3))))))))
 (let (($x2100 (forall ((w (_ BitVec 256)) )(let ((?x7474 (storage_t x_0 x_1 w_1 3 w)))
 (let ((?x10156 (storage_t x_0 x_1 w_1 4 w)))
 (= ?x10156 ?x7474))))
 ))
 (let (($x2427 (forall ((n (_ BitVec 6)) )(let ((?x417 (stack_t x_0 x_1 w_1 3 n)))
 (let ((?x6070 (stack_t x_0 x_1 w_1 4 n)))
 (or (= ?x6070 ?x417) (bvsle (bvadd (_ bv62 6) (sc_t 3)) n)))))
 ))
 (let (($x5424 (= (used_gas_t x_0 x_1 w_1 4) (+ 3 (used_gas_t x_0 x_1 w_1 3)))))
 (let ((?x6190 (bvadd (stack_t x_0 x_1 w_1 3 (bvadd (_ bv63 6) (sc_t 3))) (stack_t x_0 x_1 w_1 3 (bvadd (_ bv62 6) (sc_t 3))))))
 (let (($x2163 (exc_halt_t 2)))
 (let (($x494 (or $x2163 (not (= ((_ extract 6 6) (bvadd (_ bv1 7) (concat (_ bv0 1) (sc_t 2)))) (_ bv0 1))))))
 (let (($x6783 (exc_halt_t 3)))
 (let (($x2133 (= $x6783 $x494)))
 (let (($x11544 (forall ((w (_ BitVec 256)) )(let ((?x5216 (storage_t x_0 x_1 w_1 2 w)))
 (let ((?x7474 (storage_t x_0 x_1 w_1 3 w)))
 (= ?x7474 ?x5216))))
 ))
 (let (($x717 (forall ((n (_ BitVec 6)) )(let ((?x2072 (stack_t x_0 x_1 w_1 2 n)))
 (let ((?x417 (stack_t x_0 x_1 w_1 3 n)))
 (let ((?x2714 (sc_t 2)))
 (let (($x1932 (bvsle ?x2714 n)))
 (or $x1932 (= ?x417 ?x2072)))))))
 ))
 (let ((?x6438 (sc_t 3)))
 (let (($x10335 (= ?x6438 (bvadd (_ bv1 6) (sc_t 2)))))
 (let ((?x9661 (used_gas_t x_0 x_1 w_1 3)))
 (let (($x8830 (= $x2163 (or (exc_halt_t 1) (not (bvsle (_ bv0 6) (bvadd (_ bv63 6) (sc_t 1))))))))
 (let (($x5781 (forall ((w (_ BitVec 256)) )(let ((?x11113 (storage_t x_0 x_1 w_1 1 w)))
 (let ((?x5216 (storage_t x_0 x_1 w_1 2 w)))
 (= ?x5216 ?x11113))))
 ))
 (let (($x2800 (forall ((n (_ BitVec 6)) )(let ((?x7933 (stack_t x_0 x_1 w_1 1 n)))
 (let ((?x2072 (stack_t x_0 x_1 w_1 2 n)))
 (or (= ?x2072 ?x7933) (bvsle (bvadd (_ bv63 6) (sc_t 1)) n)))))
 ))
 (let ((?x7549 (used_gas_t x_0 x_1 w_1 2)))
 (let (($x1631 (forall ((w (_ BitVec 256)) )(let ((?x4236 (storage_t x_0 x_1 w_1 0 w)))
 (let ((?x11113 (storage_t x_0 x_1 w_1 1 w)))
 (= ?x11113 ?x4236))))
 ))
 (let (($x11058 (forall ((n (_ BitVec 6)) )(let ((?x5521 (stack_t x_0 x_1 w_1 0 n)))
 (let ((?x7933 (stack_t x_0 x_1 w_1 1 n)))
 (or (= ?x7933 ?x5521) (bvsle (bvadd (_ bv63 6) (sc_t 0)) n)))))
 ))
 (let ((?x4655 (ite (= (stack_t x_0 x_1 w_1 0 (bvadd (_ bv63 6) ?x63)) (_ bv0 256)) (_ bv1 256) (_ bv0 256))))
 (let (($x4644 (= $x772 (or (exc_halt_s 5) (not (bvsle (_ bv0 6) (bvadd (_ bv63 6) (sc_s 5))))))))
 (let (($x8184 (forall ((w (_ BitVec 256)) )(let ((?x7013 (storage_s x_0 x_1 w_1 5 w)))
 (let ((?x1339 (storage_s x_0 x_1 w_1 6 w)))
 (= ?x1339 ?x7013))))
 ))
 (let (($x10047 (forall ((n (_ BitVec 6)) )(let ((?x4319 (sc_s 5)))
 (let ((?x8324 (bvadd (_ bv63 6) ?x4319)))
 (let (($x5469 (bvsle ?x8324 n)))
 (let ((?x7465 (stack_s x_0 x_1 w_1 5 n)))
 (let ((?x10564 (stack_s x_0 x_1 w_1 6 n)))
 (or (= ?x10564 ?x7465) $x5469)))))))
 ))
 (let (($x3150 (= (used_gas_s x_0 x_1 w_1 6) (+ 2 (used_gas_s x_0 x_1 w_1 5)))))
 (let (($x11317 (exc_halt_s 5)))
 (let (($x5803 (= $x11317 (or (exc_halt_s 4) (not (bvsle (_ bv0 6) (bvadd (_ bv63 6) (sc_s 4))))))))
 (let (($x3345 (forall ((w (_ BitVec 256)) )(let ((?x5311 (storage_s x_0 x_1 w_1 4 w)))
 (let ((?x7013 (storage_s x_0 x_1 w_1 5 w)))
 (= ?x7013 ?x5311))))
 ))
 (let (($x8491 (forall ((n (_ BitVec 6)) )(let ((?x10551 (stack_s x_0 x_1 w_1 4 n)))
 (let ((?x7465 (stack_s x_0 x_1 w_1 5 n)))
 (or (bvsle (bvadd (_ bv63 6) (sc_s 4)) n) (= ?x7465 ?x10551)))))
 ))
 (let ((?x8933 (used_gas_s x_0 x_1 w_1 5)))
 (let (($x7172 (exc_halt_s 4)))
 (let (($x7694 (= $x7172 (or (exc_halt_s 3) (not (bvsle (_ bv0 6) (bvadd (_ bv61 6) (sc_s 3))))))))
 (let (($x6628 (forall ((w (_ BitVec 256)) )(let ((?x6707 (storage_s x_0 x_1 w_1 3 w)))
 (let ((?x5311 (storage_s x_0 x_1 w_1 4 w)))
 (= ?x5311 ?x6707))))
 ))
 (let (($x9985 (forall ((n (_ BitVec 6)) )(let ((?x11332 (stack_s x_0 x_1 w_1 3 n)))
 (let ((?x10551 (stack_s x_0 x_1 w_1 4 n)))
 (or (bvsle (bvadd (_ bv61 6) (sc_s 3)) n) (= ?x10551 ?x11332)))))
 ))
 (let ((?x275 (sc_s 3)))
 (let ((?x4305 (sc_s 4)))
 (let (($x2594 (= ?x4305 ?x275)))
 (let ((?x6967 (used_gas_s x_0 x_1 w_1 4)))
 (let (($x828 (= (stack_s x_0 x_1 w_1 4 (bvadd (_ bv62 6) ?x4305)) (stack_s x_0 x_1 w_1 3 (bvadd (_ bv62 6) ?x275)))))
 (let ((?x9635 (bvadd (_ bv63 6) ?x275)))
 (let ((?x5352 (stack_s x_0 x_1 w_1 3 ?x9635)))
 (let (($x5833 (= (stack_s x_0 x_1 w_1 4 (bvadd (_ bv63 6) ?x4305)) (stack_s x_0 x_1 w_1 3 (bvadd (_ bv61 6) ?x275)))))
 (let (($x292 (exc_halt_s 3)))
 (let (($x7952 (= $x292 (or (exc_halt_s 2) (not (bvsle (_ bv0 6) (bvadd (_ bv62 6) (sc_s 2))))))))
 (let (($x1462 (forall ((w (_ BitVec 256)) )(let ((?x2031 (storage_s x_0 x_1 w_1 2 w)))
 (let ((?x6707 (storage_s x_0 x_1 w_1 3 w)))
 (= ?x6707 ?x2031))))
 ))
 (let (($x9681 (forall ((n (_ BitVec 6)) )(let ((?x7135 (stack_s x_0 x_1 w_1 2 n)))
 (let ((?x11332 (stack_s x_0 x_1 w_1 3 n)))
 (let ((?x218 (sc_s 2)))
 (let ((?x2577 (bvadd (_ bv62 6) ?x218)))
 (let (($x3020 (bvsle ?x2577 n)))
 (or $x3020 (= ?x11332 ?x7135))))))))
 ))
 (let ((?x256 (used_gas_s x_0 x_1 w_1 3)))
 (let ((?x218 (sc_s 2)))
 (let ((?x7113 (bvadd (_ bv63 6) ?x218)))
 (let ((?x8775 (stack_s x_0 x_1 w_1 2 ?x7113)))
 (let (($x2669 (= ?x5352 (bvadd ?x8775 (stack_s x_0 x_1 w_1 2 (bvadd (_ bv62 6) ?x218))))))
 (let (($x1803 (not (= ((_ extract 6 6) (bvadd (_ bv1 7) (concat (_ bv0 1) (sc_s 1)))) (_ bv0 1)))))
 (let (($x189 (exc_halt_s 1)))
 (let (($x247 (exc_halt_s 2)))
 (let (($x10781 (= $x247 (or $x189 $x1803 (not (bvsle (_ bv0 6) (bvadd (_ bv61 6) (sc_s 1))))))))
 (let (($x11341 (forall ((w (_ BitVec 256)) )(let ((?x9890 (storage_s x_0 x_1 w_1 1 w)))
 (let ((?x2031 (storage_s x_0 x_1 w_1 2 w)))
 (= ?x2031 ?x9890))))
 ))
 (let (($x6619 (forall ((n (_ BitVec 6)) )(let ((?x154 (sc_s 1)))
 (let ((?x7028 (bvadd (_ bv61 6) ?x154)))
 (let (($x6117 (bvsle ?x7028 n)))
 (let ((?x893 (stack_s x_0 x_1 w_1 1 n)))
 (let ((?x7135 (stack_s x_0 x_1 w_1 2 n)))
 (or (= ?x7135 ?x893) $x6117)))))))
 ))
 (let (($x11672 (= ?x218 (bvadd (_ bv1 6) (sc_s 1)))))
 (let ((?x4019 (used_gas_s x_0 x_1 w_1 2)))
 (let (($x9162 (= (stack_s x_0 x_1 w_1 2 (bvadd (_ bv63 6) (sc_s 1))) (stack_s x_0 x_1 w_1 1 (bvadd (_ bv63 6) (sc_s 1))))))
 (let (($x3663 (= (stack_s x_0 x_1 w_1 2 (bvadd (_ bv62 6) (sc_s 1))) (stack_s x_0 x_1 w_1 1 (bvadd (_ bv62 6) (sc_s 1))))))
 (let ((?x154 (sc_s 1)))
 (let ((?x7028 (bvadd (_ bv61 6) ?x154)))
 (let ((?x3123 (stack_s x_0 x_1 w_1 1 ?x7028)))
 (let (($x9208 (= $x189 (or $x57 (not (= ((_ extract 6 6) (bvadd (_ bv1 7) (concat (_ bv0 1) ?x72))) (_ bv0 1)))))))
 (let (($x6116 (forall ((w (_ BitVec 256)) )(let ((?x5603 (storage_s x_0 x_1 w_1 0 w)))
 (let ((?x9890 (storage_s x_0 x_1 w_1 1 w)))
 (= ?x9890 ?x5603))))
 ))
 (let (($x6320 (forall ((n (_ BitVec 6)) )(let ((?x72 (sc_s 0)))
 (let (($x10612 (bvsle ?x72 n)))
 (let ((?x8299 (stack_s x_0 x_1 w_1 0 n)))
 (let ((?x893 (stack_s x_0 x_1 w_1 1 n)))
 (or (= ?x893 ?x8299) $x10612))))))
 ))
 (let (($x6169 (= ?x154 (bvadd (_ bv1 6) ?x72))))
 (let (($x6164 (forall ((w (_ BitVec 256)) )(let ((?x5603 (storage_s x_0 x_1 w_1 0 w)))
 (= ?x5603 (_ bv0 256))))
 ))
 (let (($x8972 (= ?x6307 0)))
 (let (($x10766 (not $x57)))
 (let (($x8063 (= (stack_s x_0 x_1 w_1 0 (_ bv1 6)) x_1)))
 (let (($x11528 (= (stack_s x_0 x_1 w_1 0 (_ bv0 6)) x_0)))
 (let (($x11128 (= ?x72 (_ bv2 6))))
 (and $x11128 $x11528 $x8063 $x10766 $x8972 $x6164 (= (stack_s x_0 x_1 w_1 1 ?x72) w_1) (= (used_gas_s x_0 x_1 w_1 1) (+ 3 ?x6307)) $x6169 $x6320 $x6116 $x9208 (= ?x8775 ?x3123) (= (stack_s x_0 x_1 w_1 2 ?x7028) ?x3123) $x3663 $x9162 (= ?x4019 (+ 3 (used_gas_s x_0 x_1 w_1 1))) $x11672 $x6619 $x11341 $x10781 $x2669 (= ?x256 (+ 3 ?x4019)) (= ?x275 ?x7113) $x9681 $x1462 $x7952 $x5833 (= (stack_s x_0 x_1 w_1 4 (bvadd (_ bv61 6) ?x4305)) ?x5352) $x828 (= ?x6967 (+ 3 ?x256)) $x2594 $x9985 $x6628 $x7694 (= ?x8933 (+ 2 ?x6967)) (= (sc_s 5) (bvadd (_ bv63 6) ?x4305)) $x8491 $x3345 $x5803 $x3150 (= ?x926 (bvadd (_ bv63 6) (sc_s 5))) $x10047 $x8184 $x4644 (= (stack_t x_0 x_1 w_1 1 (bvadd (_ bv63 6) (sc_t 1))) ?x4655) (= (used_gas_t x_0 x_1 w_1 1) (+ 3 ?x7553)) (= (sc_t 1) ?x63) $x11058 $x1631 (= (exc_halt_t 1) (or $x56 (not (bvsle (_ bv0 6) (bvadd (_ bv63 6) ?x63))))) (= ?x7549 (+ 2 (used_gas_t x_0 x_1 w_1 1))) (= (sc_t 2) (bvadd (_ bv63 6) (sc_t 1))) $x2800 $x5781 $x8830 (= (stack_t x_0 x_1 w_1 3 (sc_t 2)) w_1) (= ?x9661 (+ 3 ?x7549)) $x10335 $x717 $x11544 $x2133 (= (stack_t x_0 x_1 w_1 4 (bvadd (_ bv63 6) ?x4818)) ?x6190) $x5424 (= ?x4818 (bvadd (_ bv63 6) ?x6438)) $x2427 $x2100 $x11609 $x73 $x9842 $x58 $x10850 $x1621 (not (and $x7899 $x5065 $x4404 $x9611)))))))))))))))))))))))))))))))))))))))))))))))))))))))))))))))))))))))))))))))))))))))))))))))))
 )
(check-sat)
(get-proof)
